(set-logic HORN)

(declare-fun state ((Array Int Int) (Array Int Int) Int Int Int Bool Bool Bool) Bool)


(assert (forall ((|!{a1.1}| (Array Int Int)) (|!{a2.2}| (Array Int Int)) (|!{N}| Int) (|!{i}| Int) (|!{j}| Int) (|!pc[0]| Bool) (|!pc[1]| Bool) (|!pc[2]| Bool))
  (=>
   (let ((.def_39 (not |!pc[2]|)))
(let ((.def_37 (not |!pc[1]|)))
(let ((.def_36 (not |!pc[0]|)))
(let ((.def_38 (and .def_36 .def_37)))
(let ((.def_40 (and .def_38 .def_39)))
.def_40)))))
   (state |!{a1.1}| |!{a2.2}| |!{N}| |!{i}| |!{j}| |!pc[0]| |!pc[1]| |!pc[2]|))))

(assert (forall ((|!{a1.1}| (Array Int Int)) (|!{a2.2}| (Array Int Int)) (|!{N}| Int) (|!{i}| Int) (|!{j}| Int) (|!pc[0]| Bool) (|!pc[1]| Bool) (|!pc[2]| Bool)
                 (|!{a1.1}.next| (Array Int Int)) (|!{a2.2}.next| (Array Int Int)) (|!{N}.next| Int) (|!{i}.next| Int) (|!{j}.next| Int) (|!pc[0].next| Bool) (|!pc[1].next| Bool) (|!pc[2].next| Bool)
                 (|%{a1.1}#1| (Array Int Int)) (|%{a2.2}#1| (Array Int Int)) (nd_int<0> Int) (nd<0> Int))
  (=>
   (and (state |!{a1.1}| |!{a2.2}| |!{N}| |!{i}| |!{j}| |!pc[0]| |!pc[1]| |!pc[2]|)
(let ((.def_37 (not |!pc[1]|)))
(let ((.def_155 (and |!pc[0]| .def_37)))
(let ((.def_39 (not |!pc[2]|)))
(let ((.def_156 (and .def_39 .def_155)))
(let ((.def_116 (not |!pc[0].next|)))
(let ((.def_117 (and |!pc[1].next| .def_116)))
(let ((.def_64 (not |!pc[2].next|)))
(let ((.def_118 (and .def_64 .def_117)))
(let ((.def_159 (and .def_118 .def_156)))
(let ((.def_86 (= |!{N}| |!{N}.next|)))
(let ((.def_84 (= |!{a2.2}| |!{a2.2}.next|)))
(let ((.def_83 (= |!{a1.1}| |!{a1.1}.next|)))
(let ((.def_85 (and .def_83 .def_84)))
(let ((.def_87 (and .def_85 .def_86)))
(let ((.def_57 (= |!{i}.next| 1)))
(let ((.def_152 (and .def_57 .def_87)))
(let ((.def_59 (= |!{j}.next| 0)))
(let ((.def_153 (and .def_59 .def_152)))
(let ((.def_68 (<= |!{N}| |!{i}|)))
(let ((.def_154 (and .def_68 .def_153)))
(let ((.def_160 (and .def_154 .def_159)))
(let ((.def_62 (not |!pc[1].next|)))
(let ((.def_63 (and |!pc[0].next| .def_62)))
(let ((.def_65 (and .def_63 .def_64)))
(let ((.def_157 (and .def_65 .def_156)))
(let ((.def_145 (store |!{a2.2}| |!{j}| nd<0>)))
(let ((.def_146 (= |!{a2.2}.next| .def_145)))
(let ((.def_135 (store |!{a1.1}| |!{i}| nd<0>)))
(let ((.def_138 (= |!{a1.1}.next| .def_135)))
(let ((.def_147 (and .def_138 .def_146)))
(let ((.def_148 (and .def_86 .def_147)))
(let ((.def_96 (* (- 1) |!{i}.next|)))
(let ((.def_97 (+ |!{i}| .def_96)))
(let ((.def_98 (= .def_97 (- 2))))
(let ((.def_149 (and .def_98 .def_148)))
(let ((.def_100 (* (- 1) |!{j}.next|)))
(let ((.def_101 (+ |!{j}| .def_100)))
(let ((.def_102 (= .def_101 (- 1))))
(let ((.def_150 (and .def_102 .def_149)))
(let ((.def_69 (not .def_68)))
(let ((.def_151 (and .def_69 .def_150)))
(let ((.def_158 (and .def_151 .def_157)))
(let ((.def_161 (or .def_158 .def_160)))
(let ((.def_128 (and |!pc[0]| |!pc[1]|)))
(let ((.def_129 (and .def_39 .def_128)))
(let ((.def_112 (and |!pc[0].next| |!pc[1].next|)))
(let ((.def_113 (and .def_64 .def_112)))
(let ((.def_130 (and .def_113 .def_129)))
(let ((.def_90 (= |!{j}| |!{j}.next|)))
(let ((.def_88 (= |!{i}| |!{i}.next|)))
(let ((.def_89 (and .def_87 .def_88)))
(let ((.def_91 (and .def_89 .def_90)))
(let ((.def_131 (and .def_91 .def_130)))
(let ((.def_122 (and .def_62 .def_116)))
(let ((.def_123 (and |!pc[2].next| .def_122)))
(let ((.def_36 (not |!pc[0]|)))
(let ((.def_110 (and |!pc[1]| .def_36)))
(let ((.def_111 (and .def_39 .def_110)))
(let ((.def_124 (and .def_111 .def_123)))
(let ((.def_105 (and .def_68 .def_83)))
(let ((.def_106 (and .def_84 .def_105)))
(let ((.def_107 (and .def_86 .def_106)))
(let ((.def_108 (and .def_88 .def_107)))
(let ((.def_109 (and .def_90 .def_108)))
(let ((.def_125 (and .def_109 .def_124)))
(let ((.def_119 (and .def_111 .def_118)))
(let ((.def_99 (and .def_87 .def_98)))
(let ((.def_103 (and .def_99 .def_102)))
(let ((.def_104 (and .def_69 .def_103)))
(let ((.def_120 (and .def_104 .def_119)))
(let ((.def_114 (and .def_111 .def_113)))
(let ((.def_75 (select |!{a2.2}| |!{j}|)))
(let ((.def_71 (* 2 |!{j}|)))
(let ((.def_73 (+ .def_71 1)))
(let ((.def_74 (select |!{a1.1}| .def_73)))
(let ((.def_76 (= .def_74 .def_75)))
(let ((.def_77 (not .def_76)))
(let ((.def_92 (and .def_77 .def_91)))
(let ((.def_93 (and .def_69 .def_92)))
(let ((.def_115 (and .def_93 .def_114)))
(let ((.def_121 (or .def_115 .def_120)))
(let ((.def_126 (or .def_121 .def_125)))
(let ((.def_38 (and .def_36 .def_37)))
(let ((.def_40 (and .def_38 .def_39)))
(let ((.def_66 (and .def_40 .def_65)))
(let ((.def_55 (= |!{N}.next| nd_int<0>)))
(let ((.def_53 (= |!{a2.2}.next| |%{a2.2}#1|)))
(let ((.def_52 (= |!{a1.1}.next| |%{a1.1}#1|)))
(let ((.def_54 (and .def_52 .def_53)))
(let ((.def_56 (and .def_54 .def_55)))
(let ((.def_58 (and .def_56 .def_57)))
(let ((.def_60 (and .def_58 .def_59)))
(let ((.def_49 (<= nd_int<0> 0)))
(let ((.def_50 (not .def_49)))
(let ((.def_61 (and .def_50 .def_60)))
(let ((.def_67 (and .def_61 .def_66)))
(let ((.def_127 (or .def_67 .def_126)))
(let ((.def_132 (or .def_127 .def_131)))
(let ((.def_162 (or .def_132 .def_161)))
.def_162)))))))))))))))))))))))))))))))))))))))))))))))))))))))))))))))))))))))))))))))))))))))))))))))))))
   ) (state |!{a1.1}.next| |!{a2.2}.next| |!{N}.next| |!{i}.next| |!{j}.next| |!pc[0].next| |!pc[1].next| |!pc[2].next|))))

(assert (forall ((|!{a1.1}| (Array Int Int)) (|!{a2.2}| (Array Int Int)) (|!{N}| Int) (|!{i}| Int) (|!{j}| Int) (|!pc[0]| Bool) (|!pc[1]| Bool) (|!pc[2]| Bool))
  (=> (state |!{a1.1}| |!{a2.2}| |!{N}| |!{i}| |!{j}| |!pc[0]| |!pc[1]| |!pc[2]|)
(let ((.def_128 (and |!pc[0]| |!pc[1]|)))
(let ((.def_39 (not |!pc[2]|)))
(let ((.def_129 (and .def_39 .def_128)))
(let ((.def_163 (not .def_129)))
.def_163))))
)))

(check-sat)
